SrTiO3                                  
   1.00000000000000     
     3.9467954567999999    0.0000000000000000    0.0000000000000000
     0.0000000000000000    3.9467954567999999    0.0000000000000000
     0.0000000000000000    0.0000000000000000    3.9467954567999999
   Sr   Ti   O 
     1     1     3
Direct
 -0.0000244216051824 -0.0000724875579788  0.0000007238403913
  0.5027732545185928  0.5026599817736148  0.4971679120546655
  0.4837394818282322  0.4830013131485305  0.0156455977409582
  0.4837373196834995  0.9832713882773237  0.5157632220226293
  0.9839143756206840  0.4829994834121434  0.5157623136340466
 
  0.00000000E+00  0.00000000E+00  0.00000000E+00
  0.00000000E+00  0.00000000E+00  0.00000000E+00
  0.00000000E+00  0.00000000E+00  0.00000000E+00
  0.00000000E+00  0.00000000E+00  0.00000000E+00
  0.00000000E+00  0.00000000E+00  0.00000000E+00
